c CNF file corresponding to a (partial) station packing problem.
p cnf 6190 229
1 2 3 4 5 6 7 8 9 10 11 12 13 14 0
-1 -2 0
-1 -3 0
-1 -4 0
-1 -5 0
-1 -6 0
-1 -7 0
-1 -8 0
-1 -9 0
-1 -10 0
-1 -11 0
-1 -12 0
-1 -13 0
-1 -14 0
-2 -3 0
-2 -4 0
-2 -5 0
-2 -6 0
-2 -7 0
-2 -8 0
-2 -9 0
-2 -10 0
-2 -11 0
-2 -12 0
-2 -13 0
-2 -14 0
-3 -4 0
-3 -5 0
-3 -6 0
-3 -7 0
-3 -8 0
-3 -9 0
-3 -10 0
-3 -11 0
-3 -12 0
-3 -13 0
-3 -14 0
-4 -5 0
-4 -6 0
-4 -7 0
-4 -8 0
-4 -9 0
-4 -10 0
-4 -11 0
-4 -12 0
-4 -13 0
-4 -14 0
-5 -6 0
-5 -7 0
-5 -8 0
-5 -9 0
-5 -10 0
-5 -11 0
-5 -12 0
-5 -13 0
-5 -14 0
-6 -7 0
-6 -8 0
-6 -9 0
-6 -10 0
-6 -11 0
-6 -12 0
-6 -13 0
-6 -14 0
-7 -8 0
-7 -9 0
-7 -10 0
-7 -11 0
-7 -12 0
-7 -13 0
-7 -14 0
-8 -9 0
-8 -10 0
-8 -11 0
-8 -12 0
-8 -13 0
-8 -14 0
-9 -10 0
-9 -11 0
-9 -12 0
-9 -13 0
-9 -14 0
-10 -11 0
-10 -12 0
-10 -13 0
-10 -14 0
-11 -12 0
-11 -13 0
-11 -14 0
-12 -13 0
-12 -14 0
-13 -14 0
6174 6175 6176 6177 6178 6179 6180 6181 6182 6183 6184 6185 6186 6187 6188 6189 6190 0
-6174 -6175 0
-6174 -6176 0
-6174 -6177 0
-6174 -6178 0
-6174 -6179 0
-6174 -6180 0
-6174 -6181 0
-6174 -6182 0
-6174 -6183 0
-6174 -6184 0
-6174 -6185 0
-6174 -6186 0
-6174 -6187 0
-6174 -6188 0
-6174 -6189 0
-6174 -6190 0
-6175 -6176 0
-6175 -6177 0
-6175 -6178 0
-6175 -6179 0
-6175 -6180 0
-6175 -6181 0
-6175 -6182 0
-6175 -6183 0
-6175 -6184 0
-6175 -6185 0
-6175 -6186 0
-6175 -6187 0
-6175 -6188 0
-6175 -6189 0
-6175 -6190 0
-6176 -6177 0
-6176 -6178 0
-6176 -6179 0
-6176 -6180 0
-6176 -6181 0
-6176 -6182 0
-6176 -6183 0
-6176 -6184 0
-6176 -6185 0
-6176 -6186 0
-6176 -6187 0
-6176 -6188 0
-6176 -6189 0
-6176 -6190 0
-6177 -6178 0
-6177 -6179 0
-6177 -6180 0
-6177 -6181 0
-6177 -6182 0
-6177 -6183 0
-6177 -6184 0
-6177 -6185 0
-6177 -6186 0
-6177 -6187 0
-6177 -6188 0
-6177 -6189 0
-6177 -6190 0
-6178 -6179 0
-6178 -6180 0
-6178 -6181 0
-6178 -6182 0
-6178 -6183 0
-6178 -6184 0
-6178 -6185 0
-6178 -6186 0
-6178 -6187 0
-6178 -6188 0
-6178 -6189 0
-6178 -6190 0
-6179 -6180 0
-6179 -6181 0
-6179 -6182 0
-6179 -6183 0
-6179 -6184 0
-6179 -6185 0
-6179 -6186 0
-6179 -6187 0
-6179 -6188 0
-6179 -6189 0
-6179 -6190 0
-6180 -6181 0
-6180 -6182 0
-6180 -6183 0
-6180 -6184 0
-6180 -6185 0
-6180 -6186 0
-6180 -6187 0
-6180 -6188 0
-6180 -6189 0
-6180 -6190 0
-6181 -6182 0
-6181 -6183 0
-6181 -6184 0
-6181 -6185 0
-6181 -6186 0
-6181 -6187 0
-6181 -6188 0
-6181 -6189 0
-6181 -6190 0
-6182 -6183 0
-6182 -6184 0
-6182 -6185 0
-6182 -6186 0
-6182 -6187 0
-6182 -6188 0
-6182 -6189 0
-6182 -6190 0
-6183 -6184 0
-6183 -6185 0
-6183 -6186 0
-6183 -6187 0
-6183 -6188 0
-6183 -6189 0
-6183 -6190 0
-6184 -6185 0
-6184 -6186 0
-6184 -6187 0
-6184 -6188 0
-6184 -6189 0
-6184 -6190 0
-6185 -6186 0
-6185 -6187 0
-6185 -6188 0
-6185 -6189 0
-6185 -6190 0
-6186 -6187 0
-6186 -6188 0
-6186 -6189 0
-6186 -6190 0
-6187 -6188 0
-6187 -6189 0
-6187 -6190 0
-6188 -6189 0
-6188 -6190 0
-6189 -6190 0
